<number of tasks>
100

<cycle time>
1000

<order strength>
0.597


<task times>
1 414
2 439
3 583
4 324
5 433
6 531
7 468
8 425
9 451
10 562
11 381
12 422
13 560
14 563
15 267
16 541
17 465
18 615
19 375
20 543
21 568
22 333
23 329
24 417
25 566
26 337
27 418
28 449
29 586
30 390
31 381
32 330
33 515
34 508
35 355
36 376
37 434
38 789
39 429
40 499
41 515
42 510
43 579
44 561
45 403
46 582
47 553
48 706
49 349
50 661
51 279
52 625
53 547
54 365
55 584
56 462
57 649
58 786
59 404
60 498
61 544
62 576
63 527
64 244
65 509
66 658
67 713
68 509
69 470
70 385
71 435
72 391
73 656
74 471
75 677
76 482
77 460
78 645
79 402
80 262
81 367
82 355
83 626
84 346
85 571
86 613
87 510
88 339
89 625
90 529
91 488
92 720
93 389
94 502
95 541
96 326
97 656
98 460
99 440
100 449

<precedence relations>
1,6
2,7
2,8
2,9
3,9
4,7
4,8
5,7
6,10
7,11
7,12
8,39
8,40
8,41
8,42
9,11
9,12
10,13
11,14
11,15
11,16
11,40
12,15
12,16
12,35
12,40
13,18
14,20
15,17
15,19
15,21
15,22
16,61
16,70
17,23
18,24
19,26
20,27
21,25
21,39
22,28
22,34
23,29
24,30
25,31
26,34
27,35
28,32
28,33
29,37
30,40
31,41
32,38
33,36
33,39
33,42
35,39
35,41
35,42
36,43
37,44
38,46
39,45
39,47
39,48
40,47
40,55
41,47
41,48
42,48
43,49
44,52
45,50
46,51
47,52
47,53
47,54
47,58
48,52
48,53
48,54
48,55
49,56
50,57
51,58
52,57
52,59
52,60
52,61
52,62
52,66
53,57
53,68
53,69
54,63
55,90
56,64
57,85
58,66
59,65
61,64
62,68
63,64
63,65
63,66
64,68
64,71
64,72
65,67
65,68
65,70
66,69
66,72
67,73
68,74
68,78
69,75
69,77
70,76
70,77
70,78
70,79
71,84
72,77
72,79
73,80
74,81
75,82
76,83
77,84
77,85
78,84
78,85
79,100
80,88
81,86
82,89
83,90
84,87
84,90
84,91
84,92
85,93
86,94
87,95
88,96
89,97
90,97
92,99
92,100
93,98

<end>
